1 0 15 22 49 40 42 67 69 51 52 26 74 28 20 55 63 65 38 56 11 70 23 53 21 6 19 72 10 48 41 59 12 64 43 35 54 25 75 34 37 73 76 30 29 57 16 24 13 58 66 18 31 2 7 17 60 44 32 9 39 8 68 36 47 61 50 27 4 45 14 33 5 71 3 62 46 